presolving:
(round 1, fast)       71 del vars, 0 del conss, 0 add conss, 0 chg bounds, 0 chg sides, 0 chg coeffs, 0 upgd conss, 0 impls, 140 clqs
(round 2, exhaustive) 71 del vars, 0 del conss, 0 add conss, 0 chg bounds, 0 chg sides, 0 chg coeffs, 140 upgd conss, 0 impls, 140 clqs
   (0.0s) probing: 51/4830 (1.1%) - 0 fixings, 0 aggregations, 0 implications, 0 bound changes
   (0.0s) probing aborted: 50/50 successive totally useless probings
   Deactivated symmetry handling methods, since SCIP was built without symmetry detector (SYM=none).
presolving (3 rounds: 3 fast, 2 medium, 2 exhaustive):
 71 deleted vars, 0 deleted constraints, 0 added constraints, 0 tightened bounds, 0 added holes, 0 changed sides, 0 changed coefficients
 0 implications, 140 cliques
presolved problem has 4899 variables (4830 bin, 0 int, 0 impl, 69 cont) and 4832 constraints
    140 constraints of type <setppc>
   4692 constraints of type <linear>
Presolving Time: 0.00

 time | node  | left  |LP iter|LP it/n|mem/heur|mdpt |vars |cons |rows |cuts |sepa|confs|strbr|  dualbound   | primalbound  |  gap   | compl. 
p 1.0s|     1 |     0 |     1 |     - | vbounds|   0 |4899 |4840 |4832 |   0 |  0 |   7 |   0 | 0.000000e+00 | 3.413833e+03 |    Inf | unknown
  1.0s|     1 |     0 |   193 |     - |    72M |   0 |4899 |4840 |4832 |   0 |  0 |   7 |   0 | 5.266007e+02 | 3.413833e+03 | 548.28%| unknown
  1.0s|     1 |     0 |   282 |     - |    74M |   0 |4899 |4840 |4882 |  50 |  1 |   7 |   0 | 5.755901e+02 | 3.413833e+03 | 493.10%| unknown
  1.0s|     1 |     0 |   327 |     - |    75M |   0 |4899 |4841 |4921 |  89 |  2 |   8 |   0 | 5.821504e+02 | 3.413833e+03 | 486.42%| unknown
  1.0s|     1 |     0 |   353 |     - |    76M |   0 |4899 |4841 |4938 | 106 |  3 |   8 |   0 | 6.124017e+02 | 3.413833e+03 | 457.45%| unknown
  1.0s|     1 |     0 |   391 |     - |    76M |   0 |4899 |4842 |4954 | 122 |  4 |   9 |   0 | 6.219854e+02 | 3.413833e+03 | 448.86%| unknown
  1.0s|     1 |     0 |   423 |     - |    77M |   0 |4899 |4842 |4974 | 142 |  5 |   9 |   0 | 6.221472e+02 | 3.413833e+03 | 448.72%| unknown
  1.0s|     1 |     0 |   449 |     - |    78M |   0 |4899 |4843 |4987 | 155 |  6 |  10 |   0 | 6.235840e+02 | 3.413833e+03 | 447.45%| unknown
  1.0s|     1 |     0 |   463 |     - |    80M |   0 |4899 |4844 |4996 | 164 |  7 |  11 |   0 | 6.236033e+02 | 3.413833e+03 | 447.44%| unknown
  1.0s|     1 |     0 |   481 |     - |    80M |   0 |4899 |4844 |5000 | 168 |  8 |  11 |   0 | 6.248097e+02 | 3.413833e+03 | 446.38%| unknown
  1.0s|     1 |     0 |   490 |     - |    81M |   0 |4899 |4844 |5004 | 172 |  9 |  11 |   0 | 6.253943e+02 | 3.413833e+03 | 445.87%| unknown
  1.0s|     1 |     0 |   511 |     - |    81M |   0 |4899 |4845 |5012 | 180 | 10 |  12 |   0 | 6.265634e+02 | 3.413833e+03 | 444.85%| unknown
  1.0s|     1 |     0 |   545 |     - |    82M |   0 |4899 |4846 |5021 | 189 | 11 |  13 |   0 | 6.278251e+02 | 3.413833e+03 | 443.76%| unknown
  1.0s|     1 |     0 |   552 |     - |    82M |   0 |4899 |4847 |5028 | 196 | 12 |  14 |   0 | 6.279868e+02 | 3.413833e+03 | 443.62%| unknown
  2.0s|     1 |     0 |   561 |     - |    83M |   0 |4899 |4848 |5034 | 202 | 13 |  15 |   0 | 6.284778e+02 | 3.413833e+03 | 443.19%| unknown
 time | node  | left  |LP iter|LP it/n|mem/heur|mdpt |vars |cons |rows |cuts |sepa|confs|strbr|  dualbound   | primalbound  |  gap   | compl. 
  2.0s|     1 |     0 |   573 |     - |    83M |   0 |4899 |4849 |5046 | 214 | 14 |  16 |   0 | 6.284778e+02 | 3.413833e+03 | 443.19%| unknown
  2.0s|     1 |     0 |   584 |     - |    84M |   0 |4899 |4850 |5052 | 220 | 15 |  17 |   0 | 6.286865e+02 | 3.413833e+03 | 443.01%| unknown
  2.0s|     1 |     0 |   593 |     - |    84M |   0 |4899 |4851 |4972 | 223 | 16 |  18 |   0 | 6.289607e+02 | 3.413833e+03 | 442.77%| unknown
  2.0s|     1 |     0 |   620 |     - |    85M |   0 |4899 |4852 |4985 | 236 | 17 |  19 |   0 | 6.292499e+02 | 3.413833e+03 | 442.52%| unknown
  2.0s|     1 |     0 |   636 |     - |    85M |   0 |4899 |4853 |4997 | 248 | 18 |  20 |   0 | 6.312763e+02 | 3.413833e+03 | 440.78%| unknown
  2.0s|     1 |     0 |   679 |     - |    86M |   0 |4899 |4853 |5007 | 258 | 19 |  20 |   0 | 6.417236e+02 | 3.413833e+03 | 431.98%| unknown
  2.0s|     1 |     0 |   708 |     - |    86M |   0 |4899 |4854 |5013 | 264 | 20 |  21 |   0 | 6.420680e+02 | 3.413833e+03 | 431.69%| unknown
  2.0s|     1 |     0 |   721 |     - |    86M |   0 |4899 |4855 |5019 | 270 | 21 |  22 |   0 | 6.425080e+02 | 3.413833e+03 | 431.33%| unknown
  2.0s|     1 |     0 |   725 |     - |    86M |   0 |4899 |4856 |4984 | 274 | 22 |  23 |   0 | 6.425080e+02 | 3.413833e+03 | 431.33%| unknown
  2.0s|     1 |     0 |   727 |     - |    86M |   0 |4899 |4857 |4986 | 276 | 23 |  24 |   0 | 6.425080e+02 | 3.413833e+03 | 431.33%| unknown
  2.0s|     1 |     0 |   729 |     - |    86M |   0 |4899 |4858 |4988 | 278 | 24 |  25 |   0 | 6.425080e+02 | 3.413833e+03 | 431.33%| unknown
d 6.0s|     1 |     0 |  6801 |     - |conflict|   0 |4899 |4866 |4988 |   0 | 26 |  33 |   0 | 6.425080e+02 | 1.210166e+03 |  88.35%| unknown
  7.0s|     1 |     0 |  6801 |     - |    87M |   0 |4899 |4866 |4988 | 278 | 26 |  33 |   0 | 6.425080e+02 | 1.210166e+03 |  88.35%| unknown
  7.0s|     1 |     0 |  6805 |     - |    87M |   0 |4899 |4867 |4975 | 282 | 27 |  34 |   0 | 6.425080e+02 | 1.210166e+03 |  88.35%| unknown
  7.0s|     1 |     0 |  6807 |     - |    87M |   0 |4899 |4868 |4977 | 284 | 28 |  35 |   0 | 6.425080e+02 | 1.210166e+03 |  88.35%| unknown
 time | node  | left  |LP iter|LP it/n|mem/heur|mdpt |vars |cons |rows |cuts |sepa|confs|strbr|  dualbound   | primalbound  |  gap   | compl. 
 10.0s|     1 |     2 |  6807 |     - |    87M |   0 |4899 |4869 |4977 | 284 | 28 |  36 |  46 | 6.435199e+02 | 1.210166e+03 |  88.05%| unknown
L54.0s|    40 |    41 |  8730 | 205.0 |    alns|  20 |4899 |4876 |4949 | 345 |  2 |  43 | 626 | 6.453150e+02 | 1.109254e+03 |  71.89%| unknown
d91.0s|    85 |    86 | 12588 | 141.1 |veclendi|  23 |4899 |4887 |4968 |   0 |  1 |  64 |1086 | 6.453150e+02 | 9.139365e+02 |  41.63%| unknown
 98.0s|   100 |   101 | 13426 | 128.2 |   107M |  23 |4899 |4887 |4971 | 557 |  5 |  64 |1178 | 6.453150e+02 | 9.139365e+02 |  41.63%| unknown
o 100s|   113 |   114 | 14541 | 123.3 |rootsold|  23 |4899 |4887 |4949 | 557 |  1 |  64 |1205 | 6.453150e+02 | 8.842041e+02 |  37.02%| unknown
  125s|   200 |   199 | 20782 | 100.7 |   115M |  23 |4899 |4956 |4986 | 820 |  4 | 133 |1522 | 6.460035e+02 | 8.842041e+02 |  36.87%| unknown
  140s|   300 |   297 | 25574 |  83.1 |   122M |  33 |4899 |4992 |4967 |1039 |  1 | 169 |1651 | 6.469255e+02 | 8.842041e+02 |  36.68%| unknown
L 142s|   313 |   310 | 26056 |  81.2 |    rins|  33 |4899 |4992 |4956 |1052 |  1 | 169 |1666 | 6.469255e+02 | 8.518828e+02 |  31.68%| unknown
  151s|   400 |   395 | 29497 |  72.1 |   123M |  33 |4899 |5005 |4960 |1086 |  1 | 184 |1756 | 6.469255e+02 | 8.518828e+02 |  31.68%| unknown
  163s|   500 |   493 | 33864 |  66.4 |   126M |  36 |4899 |5059 |4956 |1235 |  1 | 239 |1866 | 6.469255e+02 | 8.518828e+02 |  31.68%| unknown
L 165s|   513 |   506 | 35813 |  68.5 |    rins|  36 |4899 |5059 |4960 |1241 |  1 | 239 |1874 | 6.469255e+02 | 8.518828e+02 |  31.68%| unknown
d 166s|   520 |   513 | 36217 |  68.4 |distribu|  36 |4899 |5060 |4960 |   0 |  1 | 240 |1878 | 6.469255e+02 | 8.430181e+02 |  30.31%| unknown
  173s|   600 |   591 | 39527 |  64.8 |   126M |  39 |4899 |5115 |4952 |1304 |  2 | 295 |1946 | 6.469475e+02 | 8.430181e+02 |  30.31%| unknown
  182s|   700 |   689 | 44603 |  62.8 |   130M |  39 |4899 |5169 |4948 |1375 |  1 | 349 |2013 | 6.469475e+02 | 8.430181e+02 |  30.31%| unknown
d 183s|   708 |   695 | 44815 |  62.3 |veclendi|  39 |4899 |4920 |4952 |   0 |  1 | 350 |2027 | 6.469475e+02 | 7.803360e+02 |  20.62%| unknown
 time | node  | left  |LP iter|LP it/n|mem/heur|mdpt |vars |cons |rows |cuts |sepa|confs|strbr|  dualbound   | primalbound  |  gap   | compl. 
  189s|   800 |   777 | 47626 |  58.7 |   131M |  39 |4899 |4975 |4961 |1413 |  1 | 405 |2069 | 6.469475e+02 | 7.803360e+02 |  20.62%| unknown
  194s|   900 |   871 | 51612 |  56.6 |   131M |  39 |4899 |5027 |4956 |1439 |  1 | 457 |2095 | 6.469475e+02 | 7.803360e+02 |  20.62%| unknown
L 195s|   908 |   872 | 51816 |  56.3 |crossove|  39 |4899 |5027 |4960 |1443 |  1 | 457 |2095 | 6.469475e+02 | 7.555612e+02 |  16.79%| unknown
  200s|  1000 |   964 | 55616 |  54.9 |   133M |  39 |4899 |5094 |4954 |1546 |  1 | 524 |2114 | 6.469475e+02 | 7.555612e+02 |  16.79%| unknown
Restart triggered after 50 consecutive estimations that the remaining tree will be large
(run 1, node 1043) performing user restart

(restart) converted 111 cuts from the global cut pool into linear constraints

presolving:
(round 1, exhaustive) 0 del vars, 0 del conss, 0 add conss, 0 chg bounds, 2 chg sides, 2 chg coeffs, 74 upgd conss, 0 impls, 208 clqs
(round 2, fast)       0 del vars, 9 del conss, 0 add conss, 0 chg bounds, 2 chg sides, 2 chg coeffs, 74 upgd conss, 26 impls, 208 clqs
presolving (3 rounds: 3 fast, 2 medium, 2 exhaustive):
 0 deleted vars, 11 deleted constraints, 0 added constraints, 0 tightened bounds, 0 added holes, 2 changed sides, 68 changed coefficients
 26 implications, 208 cliques
presolved problem has 4899 variables (4830 bin, 0 int, 0 impl, 69 cont) and 5214 constraints
     26 constraints of type <varbound>
     17 constraints of type <knapsack>
    194 constraints of type <setppc>
   4730 constraints of type <linear>
    220 constraints of type <logicor>
     27 constraints of type <bounddisjunction>
Presolving Time: 0.00
transformed 12/12 original solutions to the transformed problem space

 time | node  | left  |LP iter|LP it/n|mem/heur|mdpt |vars |cons |rows |cuts |sepa|confs|strbr|  dualbound   | primalbound  |  gap   | compl. 
  204s|     1 |     0 | 58255 |     - |   136M |   0 |4899 |5214 |4943 |   0 |  0 | 544 |2135 | 6.469475e+02 | 7.555612e+02 |  16.79%| unknown
  204s|     1 |     0 | 58277 |     - |   136M |   0 |4899 |5214 |4956 |  13 |  1 | 544 |2135 | 6.469475e+02 | 7.555612e+02 |  16.79%| unknown
  204s|     1 |     0 | 58281 |     - |   136M |   0 |4899 |5214 |4959 |  16 |  2 | 544 |2135 | 6.469475e+02 | 7.555612e+02 |  16.79%| unknown
  204s|     1 |     0 | 58311 |     - |   136M |   0 |4899 |5214 |4965 |  22 |  3 | 544 |2135 | 6.469475e+02 | 7.555612e+02 |  16.79%| unknown
  204s|     1 |     0 | 58359 |     - |   136M |   0 |4899 |5214 |4992 |  49 |  4 | 544 |2135 | 6.486681e+02 | 7.555612e+02 |  16.48%| unknown
  204s|     1 |     0 | 58379 |     - |   136M |   0 |4899 |5215 |5009 |  66 |  5 | 545 |2135 | 6.486681e+02 | 7.555612e+02 |  16.48%| unknown
  204s|     1 |     0 | 58389 |     - |   137M |   0 |4899 |5216 |5016 |  73 |  6 | 546 |2135 | 6.486681e+02 | 7.555612e+02 |  16.48%| unknown
  205s|     1 |     0 | 58392 |     - |   137M |   0 |4899 |5216 |5019 |  76 |  7 | 546 |2135 | 6.486681e+02 | 7.555612e+02 |  16.48%| unknown
  205s|     1 |     0 | 58463 |     - |   138M |   0 |4899 |5216 |5029 |  86 |  8 | 546 |2135 | 6.516597e+02 | 7.555612e+02 |  15.94%| unknown
  205s|     1 |     0 | 58500 |     - |   138M |   0 |4899 |5216 |5048 | 105 |  9 | 546 |2135 | 6.519637e+02 | 7.555612e+02 |  15.89%| unknown
  205s|     1 |     0 | 58500 |     - |   138M |   0 |4899 |5216 |5048 | 105 |  9 | 546 |2135 | 6.519637e+02 | 7.555612e+02 |  15.89%| unknown
  205s|     1 |     0 | 58548 |     - |   139M |   0 |4899 |5216 |5029 | 123 | 10 | 546 |2135 | 6.530237e+02 | 7.555612e+02 |  15.70%| unknown
  205s|     1 |     0 | 58548 |     - |   139M |   0 |4899 |5216 |5029 | 123 | 10 | 546 |2135 | 6.530237e+02 | 7.555612e+02 |  15.70%| unknown
  205s|     1 |     0 | 58594 |     - |   139M |   0 |4899 |5216 |5039 | 133 | 11 | 546 |2135 | 6.531929e+02 | 7.555612e+02 |  15.67%| unknown
  205s|     1 |     0 | 58634 |     - |   139M |   0 |4899 |5217 |5061 | 155 | 12 | 547 |2135 | 6.537118e+02 | 7.555612e+02 |  15.58%| unknown
 time | node  | left  |LP iter|LP it/n|mem/heur|mdpt |vars |cons |rows |cuts |sepa|confs|strbr|  dualbound   | primalbound  |  gap   | compl. 
  205s|     1 |     0 | 58651 |     - |   139M |   0 |4899 |5218 |5067 | 161 | 13 | 548 |2135 | 6.541729e+02 | 7.555612e+02 |  15.50%| unknown
  205s|     1 |     0 | 58656 |     - |   140M |   0 |4899 |5218 |5071 | 165 | 14 | 548 |2135 | 6.541729e+02 | 7.555612e+02 |  15.50%| unknown
  205s|     1 |     0 | 58660 |     - |   140M |   0 |4899 |5218 |5074 | 168 | 15 | 548 |2135 | 6.541729e+02 | 7.555612e+02 |  15.50%| unknown
  205s|     1 |     0 | 58664 |     - |   141M |   0 |4899 |5217 |5022 | 169 | 16 | 548 |2135 | 6.541729e+02 | 7.555612e+02 |  15.50%| unknown
  205s|     1 |     0 | 58665 |     - |   141M |   0 |4899 |5216 |5024 | 171 | 17 | 548 |2135 | 6.541729e+02 | 7.555612e+02 |  15.50%| unknown
  205s|     1 |     0 | 58698 |     - |   142M |   0 |4899 |5213 |5028 | 175 | 18 | 548 |2135 | 6.548267e+02 | 7.555612e+02 |  15.38%| unknown
  206s|     1 |     0 | 58756 |     - |   142M |   0 |4899 |5211 |5048 | 195 | 19 | 548 |2135 | 6.550338e+02 | 7.555612e+02 |  15.35%| unknown
  206s|     1 |     0 | 58767 |     - |   142M |   0 |4899 |5211 |5058 | 205 | 20 | 549 |2135 | 6.550338e+02 | 7.555612e+02 |  15.35%| unknown
  206s|     1 |     0 | 58777 |     - |   142M |   0 |4899 |5211 |5064 | 211 | 21 | 550 |2135 | 6.550338e+02 | 7.555612e+02 |  15.35%| unknown
  206s|     1 |     0 | 58779 |     - |   142M |   0 |4899 |5211 |4994 | 213 | 22 | 550 |2135 | 6.550338e+02 | 7.555612e+02 |  15.35%| unknown
  206s|     1 |     0 | 58803 |     - |   142M |   0 |4899 |5210 |5000 | 219 | 23 | 550 |2135 | 6.550478e+02 | 7.555612e+02 |  15.34%| unknown
  206s|     1 |     0 | 58818 |     - |   142M |   0 |4899 |5211 |5014 | 233 | 24 | 551 |2135 | 6.550478e+02 | 7.555612e+02 |  15.34%| unknown
  206s|     1 |     0 | 58822 |     - |   142M |   0 |4899 |5210 |5018 | 237 | 25 | 552 |2135 | 6.550478e+02 | 7.555612e+02 |  15.34%| unknown
  206s|     1 |     0 | 58824 |     - |   142M |   0 |4899 |5210 |5021 | 240 | 26 | 552 |2135 | 6.550478e+02 | 7.555612e+02 |  15.34%| unknown
  206s|     1 |     0 | 58826 |     - |   142M |   0 |4899 |5208 |5023 | 242 | 27 | 552 |2135 | 6.550478e+02 | 7.555612e+02 |  15.34%| unknown
 time | node  | left  |LP iter|LP it/n|mem/heur|mdpt |vars |cons |rows |cuts |sepa|confs|strbr|  dualbound   | primalbound  |  gap   | compl. 
  206s|     1 |     0 | 58827 |     - |   142M |   0 |4899 |5208 |4998 | 243 | 28 | 552 |2135 | 6.550478e+02 | 7.555612e+02 |  15.34%| unknown
  206s|     1 |     0 | 58849 |     - |   142M |   0 |4899 |5207 |5001 | 246 | 29 | 552 |2135 | 6.552006e+02 | 7.555612e+02 |  15.32%| unknown
  206s|     1 |     0 | 58851 |     - |   142M |   0 |4899 |5206 |5004 | 249 | 30 | 552 |2135 | 6.552006e+02 | 7.555612e+02 |  15.32%| unknown
  211s|     1 |     2 | 61419 |     - |   142M |   0 |4899 |5217 |5004 | 249 | 32 | 566 |2166 | 6.552258e+02 | 7.555612e+02 |  15.31%| unknown
  258s|   100 |   101 | 68198 |  58.3 |   151M |  21 |4899 |5319 |4976 | 644 |  1 | 672 |2716 | 6.552441e+02 | 7.555612e+02 |  15.31%| unknown
  266s|   200 |   201 | 73806 |  58.1 |   153M |  28 |4899 |5372 |4987 | 801 |  2 | 726 |2762 | 6.552441e+02 | 7.555612e+02 |  15.31%| unknown
  273s|   300 |   299 | 77831 |  56.8 |   154M |  31 |4899 |5433 |4961 | 893 |  1 | 787 |2789 | 6.552441e+02 | 7.555612e+02 |  15.31%| unknown
  280s|   400 |   399 | 81992 |  55.7 |   154M |  31 |4899 |5492 |4957 |1020 |  1 | 846 |2828 | 6.552500e+02 | 7.555612e+02 |  15.31%| unknown
  287s|   500 |   497 | 87107 |  55.4 |   156M |  31 |4899 |5524 |4961 |1127 |  1 | 879 |2857 | 6.552500e+02 | 7.555612e+02 |  15.31%| unknown
  296s|   600 |   597 | 92691 |  55.5 |   157M |  31 |4899 |5569 |4977 |1277 |  1 | 929 |2902 | 6.552500e+02 | 7.555612e+02 |  15.31%| unknown
  303s|   700 |   695 | 96556 |  54.5 |   158M |  33 |4899 |5657 |4970 |1428 |  2 |1018 |2939 | 6.552500e+02 | 7.555612e+02 |  15.31%| unknown
  311s|   800 |   787 |101659 |  54.3 |   159M |  33 |4899 |5720 |4966 |1489 |  2 |1083 |2979 | 6.552500e+02 | 7.555612e+02 |  15.31%| unknown
  317s|   900 |   885 |105000 |  53.2 |   160M |  33 |4899 |5774 |4965 |1608 |  1 |1145 |3005 | 6.552500e+02 | 7.555612e+02 |  15.31%| unknown
  325s|  1000 |   985 |111244 |  53.7 |   163M |  33 |4899 |5822 |4973 |1877 |  1 |1196 |3039 | 6.552500e+02 | 7.555612e+02 |  15.31%| unknown
  333s|  1100 |  1085 |116364 |  53.6 |   164M |  33 |4899 |5888 |4970 |1978 |  1 |1267 |3079 | 6.552500e+02 | 7.555612e+02 |  15.31%| unknown
 time | node  | left  |LP iter|LP it/n|mem/heur|mdpt |vars |cons |rows |cuts |sepa|confs|strbr|  dualbound   | primalbound  |  gap   | compl. 
L 333s|  1108 |  1093 |116570 |  53.5 |    rins|  33 |4899 |5895 |4961 |1978 |  1 |1276 |3079 | 6.552500e+02 | 7.489919e+02 |  14.31%| unknown
  340s|  1200 |  1185 |122344 |  53.8 |   165M |  33 |4899 |6034 |4964 |2038 |  1 |1428 |3096 | 6.552621e+02 | 7.489919e+02 |  14.30%| unknown
  349s|  1300 |  1283 |130711 |  55.1 |   166M |  33 |4899 |6209 |4963 |2153 |  1 |1617 |3122 | 6.552651e+02 | 7.489919e+02 |  14.30%| unknown
L 350s|  1308 |  1288 |131215 |  55.1 |    rins|  33 |4899 |6249 |4978 |2156 |  1 |1660 |3122 | 6.552651e+02 | 7.415504e+02 |  13.17%| unknown
  359s|  1400 |  1376 |138261 |  55.9 |   169M |  33 |4899 |6338 |4997 |2295 |  4 |1777 |3152 | 6.552669e+02 | 7.415504e+02 |  13.17%| unknown
  367s|  1500 |  1476 |143119 |  55.7 |   170M |  33 |4899 |6520 |4966 |2377 |  1 |1982 |3175 | 6.552716e+02 | 7.415504e+02 |  13.17%| unknown
  376s|  1600 |  1574 |148360 |  55.5 |   171M |  33 |4899 |6711 |4984 |2513 |  1 |2206 |3198 | 6.552716e+02 | 7.415504e+02 |  13.17%| unknown
  384s|  1700 |  1672 |152645 |  55.1 |   172M |  33 |4899 |6847 |4966 |2641 |  1 |2372 |3215 | 6.552721e+02 | 7.415504e+02 |  13.17%| unknown
  393s|  1800 |  1772 |159991 |  55.7 |   173M |  33 |4899 |7010 |4980 |2899 |  3 |2577 |3221 | 6.552721e+02 | 7.415504e+02 |  13.17%| unknown
  399s|  1900 |  1872 |164916 |  55.5 |   174M |  37 |4899 |7107 |4965 |2968 |  2 |2714 |3225 | 6.552772e+02 | 7.415504e+02 |  13.17%| unknown
  408s|  2000 |  1970 |169970 |  55.3 |   175M |  41 |4899 |7245 |4975 |3213 |  1 |2931 |3240 | 6.552773e+02 | 7.415504e+02 |  13.17%| unknown
  414s|  2100 |  2070 |174023 |  54.9 |   176M |  43 |4899 |7330 |4963 |3275 |  1 |3101 |3253 | 6.552773e+02 | 7.415504e+02 |  13.17%| unknown
  421s|  2200 |  2166 |177985 |  54.4 |   178M |  43 |4899 |7457 |4978 |3357 |  1 |3321 |3267 | 6.552863e+02 | 7.415504e+02 |  13.16%| unknown
  428s|  2300 |  2264 |183668 |  54.5 |   179M |  43 |4899 |7507 |4967 |3436 |  1 |3432 |3278 | 6.552863e+02 | 7.415504e+02 |  13.16%| unknown
  434s|  2400 |  2364 |187725 |  54.1 |   179M |  43 |4899 |7566 |4984 |3555 |  1 |3609 |3282 | 6.552863e+02 | 7.415504e+02 |  13.16%| unknown
 time | node  | left  |LP iter|LP it/n|mem/heur|mdpt |vars |cons |rows |cuts |sepa|confs|strbr|  dualbound   | primalbound  |  gap   | compl. 
  441s|  2500 |  2460 |190931 |  53.4 |   180M |  43 |4899 |7640 |4967 |3595 |  1 |3777 |3302 | 6.552863e+02 | 7.415504e+02 |  13.16%| unknown
  447s|  2600 |  2556 |194166 |  52.9 |   181M |  43 |4899 |7665 |4968 |3642 |  1 |3893 |3317 | 6.552863e+02 | 7.415504e+02 |  13.16%| unknown
  452s|  2700 |  2656 |197937 |  52.5 |   181M |  43 |4899 |7727 |4953 |3722 |  1 |4044 |3321 | 6.552863e+02 | 7.415504e+02 |  13.16%| unknown
L 453s|  2708 |  2661 |198256 |  52.4 |crossove|  43 |4899 |7724 |4959 |3735 |  1 |4054 |3321 | 6.552863e+02 | 7.336965e+02 |  11.97%| unknown
  458s|  2800 |  2751 |201649 |  52.1 |   183M |  43 |4899 |7828 |4959 |3770 |  1 |4195 |3328 | 6.552863e+02 | 7.336965e+02 |  11.97%| unknown
  464s|  2900 |  2849 |205867 |  51.8 |   183M |  43 |4899 |7914 |4964 |3899 |  1 |4330 |3338 | 6.552863e+02 | 7.336965e+02 |  11.97%| unknown
  471s|  3000 |  2949 |211293 |  51.9 |   185M |  43 |4899 |8066 |4960 |4002 |  1 |4518 |3343 | 6.552863e+02 | 7.336965e+02 |  11.97%| unknown
  478s|  3100 |  3049 |217430 |  52.1 |   186M |  43 |4899 |8127 |4963 |4099 |  1 |4692 |3348 | 6.552863e+02 | 7.336965e+02 |  11.97%| unknown
  485s|  3200 |  3149 |222377 |  52.0 |   187M |  43 |4899 |8169 |4966 |4327 |  1 |4866 |3354 | 6.552903e+02 | 7.336965e+02 |  11.97%| unknown
  492s|  3300 |  3247 |227357 |  52.0 |   188M |  43 |4899 |8203 |4963 |4418 |  1 |5020 |3361 | 6.552903e+02 | 7.336965e+02 |  11.97%| unknown
  499s|  3400 |  3345 |232822 |  52.0 |   190M |  43 |4899 |8230 |4963 |4576 |  1 |5202 |3373 | 6.553309e+02 | 7.336965e+02 |  11.96%| unknown
  505s|  3500 |  3445 |236975 |  51.8 |   190M |  43 |4899 |8143 |4959 |4781 |  1 |5301 |3375 | 6.553309e+02 | 7.336965e+02 |  11.96%| unknown
  513s|  3600 |  3543 |242999 |  52.0 |   191M |  43 |4899 |8136 |4970 |4995 |  1 |5471 |3378 | 6.553363e+02 | 7.336965e+02 |  11.96%| unknown
  517s|  3700 |  3643 |247146 |  51.8 |   192M |  43 |4899 |8091 |4954 |5046 |  1 |5563 |3384 | 6.553460e+02 | 7.336965e+02 |  11.96%| unknown
  524s|  3800 |  3741 |254021 |  52.1 |   193M |  43 |4899 |8080 |4961 |5174 |  2 |5769 |3386 | 6.553460e+02 | 7.336965e+02 |  11.96%| unknown
 time | node  | left  |LP iter|LP it/n|mem/heur|mdpt |vars |cons |rows |cuts |sepa|confs|strbr|  dualbound   | primalbound  |  gap   | compl. 
  529s|  3900 |  3837 |257808 |  51.8 |   194M |  43 |4899 |8007 |4954 |5248 |  1 |5866 |3392 | 6.553460e+02 | 7.336965e+02 |  11.96%| unknown
  538s|  4000 |  3935 |266417 |  52.5 |   196M |  43 |4899 |7985 |4977 |5415 |  1 |6072 |3396 | 6.553602e+02 | 7.336965e+02 |  11.95%| unknown
  543s|  4100 |  4031 |270193 |  52.2 |   198M |  43 |4899 |7916 |4964 |5511 |  1 |6170 |3398 | 6.553602e+02 | 7.336965e+02 |  11.95%| unknown
  552s|  4200 |  4131 |273982 |  52.0 |   199M |  43 |4899 |7817 |4978 |5656 |  1 |6257 |3405 | 6.553638e+02 | 7.336965e+02 |  11.95%| unknown
  558s|  4300 |  4229 |278962 |  51.9 |   200M |  43 |4899 |7740 |   0 |5850 |  0 |6368 |3405 | 6.553638e+02 | 7.336965e+02 |  11.95%| unknown
  564s|  4400 |  4329 |283660 |  51.8 |   201M |  43 |4899 |7718 |4977 |5955 |  1 |6509 |3405 | 6.553721e+02 | 7.336965e+02 |  11.95%| unknown
  570s|  4500 |  4427 |288038 |  51.7 |   202M |  43 |4899 |7663 |4966 |6007 |  1 |6593 |3416 | 6.553753e+02 | 7.336965e+02 |  11.95%| unknown
  577s|  4600 |  4527 |293591 |  51.7 |   204M |  43 |4899 |7581 |4957 |6147 |  1 |6697 |3418 | 6.553829e+02 | 7.336965e+02 |  11.95%| unknown
  582s|  4700 |  4625 |296487 |  51.3 |   205M |  43 |4899 |7450 |4960 |6239 |  2 |6763 |3428 | 6.553986e+02 | 7.336965e+02 |  11.95%| unknown
  587s|  4800 |  4725 |299832 |  51.0 |   206M |  43 |4899 |7464 |4964 |6293 |  1 |6884 |3429 | 6.554282e+02 | 7.336965e+02 |  11.94%| unknown
o 589s|  4840 |  4765 |301491 |  51.0 |rootsold|  43 |4899 |7396 |4964 |6340 |  1 |6896 |3431 | 6.554513e+02 | 7.088670e+02 |   8.15%| unknown
  592s|  4900 |  4803 |304136 |  50.9 |   208M |  43 |4899 |7362 |4960 |6402 |  1 |6938 |3437 | 6.554513e+02 | 7.088670e+02 |   8.15%| unknown
  597s|  5000 |  4901 |308695 |  50.8 |   209M |  43 |4899 |7417 |4953 |6450 |  1 |7065 |3438 | 6.554513e+02 | 7.088670e+02 |   8.15%| unknown

SCIP Status        : solving was interrupted [time limit reached]
Solving Time (sec) : 600.00
Solving Nodes      : 5026 (total of 6069 nodes in 2 runs)
Primal Bound       : +7.08866958809830e+02 (30 solutions)
Dual Bound         : +6.55451341029960e+02
Gap                : 8.15 %
Trying to solve problem with MTZ Solver Method...
Starting Solver, time limit setted to 10 minutes
Route:  [[0, 35], [1, 3], [2, 13], [3, 17], [4, 9], [5, 52], [6, 1], [7, 2], [8, 16], [9, 51], [10, 63], [11, 32], [12, 37], [13, 19], [14, 23], [15, 0], [16, 42], [17, 41], [18, 6], [19, 29], [20, 11], [21, 62], [22, 28], [23, 18], [24, 44], [25, 7], [26, 45], [27, 54], [28, 30], [29, 43], [30, 68], [31, 27], [32, 61], [33, 20], [34, 69], [35, 22], [36, 46], [37, 21], [38, 60], [39, 8], [40, 5], [41, 31], [42, 40], [43, 67], [44, 38], [45, 24], [46, 15], [47, 66], [48, 25], [49, 57], [50, 49], [51, 59], [52, 4], [53, 47], [54, 48], [55, 50], [56, 14], [57, 36], [58, 65], [59, 33], [60, 39], [61, 53], [62, 58], [63, 64], [64, 55], [65, 56], [66, 10], [67, 26], [68, 34], [69, 12]]
An Otimal Solution was found, yay!
Objective value: 708.9
Problem solved in 309451 iterations
Problem solved in 6069 nodes
Final Route Configuration succesfully created at:
data/routes/st70.csv
